c generated by Julia
p edge 29 203
e 1 2
e 1 3
e 2 3
e 1 4
e 2 4
e 1 5
e 2 5
e 3 5
e 4 5
e 1 6
e 2 6
e 4 6
e 1 7
e 2 7
e 3 7
e 1 8
e 2 8
e 6 8
e 7 8
e 1 9
e 4 9
e 7 9
e 1 10
e 5 10
e 6 10
e 1 11
e 3 11
e 8 11
e 9 11
e 10 11
e 1 12
e 3 12
e 5 12
e 7 12
e 10 12
e 1 13
e 4 13
e 5 13
e 8 13
e 9 13
e 11 13
e 12 13
e 1 14
e 4 14
e 6 14
e 7 14
e 9 14
e 10 14
e 12 14
e 1 15
e 3 15
e 6 15
e 8 15
e 9 15
e 10 15
e 11 15
e 2 16
e 9 16
e 10 16
e 11 16
e 12 16
e 13 16
e 14 16
e 2 17
e 3 17
e 4 17
e 6 17
e 12 17
e 13 17
e 15 17
e 16 17
e 2 18
e 4 18
e 5 18
e 8 18
e 9 18
e 14 18
e 15 18
e 16 18
e 2 19
e 3 19
e 6 19
e 7 19
e 9 19
e 11 19
e 14 19
e 16 19
e 17 19
e 2 20
e 5 20
e 6 20
e 8 20
e 10 20
e 11 20
e 12 20
e 16 20
e 18 20
e 19 20
e 2 21
e 3 21
e 5 21
e 7 21
e 9 21
e 10 21
e 15 21
e 16 21
e 18 21
e 2 22
e 4 22
e 7 22
e 8 22
e 10 22
e 11 22
e 13 22
e 16 22
e 17 22
e 21 22
e 3 23
e 6 23
e 8 23
e 12 23
e 13 23
e 14 23
e 15 23
e 16 23
e 17 23
e 18 23
e 21 23
e 5 24
e 7 24
e 8 24
e 9 24
e 12 24
e 13 24
e 15 24
e 17 24
e 18 24
e 19 24
e 20 24
e 4 25
e 6 25
e 7 25
e 9 25
e 10 25
e 12 25
e 15 25
e 17 25
e 20 25
e 21 25
e 22 25
e 24 25
e 3 26
e 4 26
e 5 26
e 10 26
e 11 26
e 14 26
e 15 26
e 17 26
e 18 26
e 19 26
e 22 26
e 24 26
e 5 27
e 6 27
e 7 27
e 8 27
e 10 27
e 13 27
e 14 27
e 19 27
e 21 27
e 22 27
e 23 27
e 24 27
e 26 27
e 3 28
e 4 28
e 7 28
e 8 28
e 11 28
e 12 28
e 14 28
e 18 28
e 20 28
e 22 28
e 23 28
e 25 28
e 26 28
e 3 29
e 4 29
e 5 29
e 6 29
e 9 29
e 11 29
e 13 29
e 19 29
e 20 29
e 21 29
e 23 29
e 25 29
e 27 29
e 28 29
